% Data file generated from RandomInstances/24_0.70_1.col DIMACS file
size = 24;

chi = 9;

adjacency = [|0,0,1,0,1,1,0,1,1,0,1,1,0,1,1,1,0,1,1,1,1,0,1,1,
|0,0,1,1,1,0,1,1,0,1,1,1,1,1,0,0,0,0,1,1,1,1,0,1,
|1,1,0,1,1,1,0,0,1,0,1,1,1,1,1,0,1,0,1,0,0,1,1,0,
|0,1,1,0,0,1,1,1,0,1,1,0,1,1,1,0,1,1,1,1,1,1,1,1,
|1,1,1,0,0,0,1,1,1,1,0,1,1,0,1,1,1,0,0,0,1,1,1,1,
|1,0,1,1,0,0,0,1,1,1,1,0,1,1,1,0,1,0,1,1,1,1,0,1,
|0,1,0,1,1,0,0,0,0,0,0,1,1,1,1,1,1,1,1,1,1,1,0,1,
|1,1,0,1,1,1,0,0,1,1,1,1,1,1,0,0,1,1,1,1,0,1,1,1,
|1,0,1,0,1,1,0,1,0,1,1,1,1,0,1,1,0,1,1,1,0,1,1,1,
|0,1,0,1,1,1,0,1,1,0,0,1,0,1,1,1,1,1,1,1,0,1,1,1,
|1,1,1,1,0,1,0,1,1,0,0,1,1,0,1,1,0,1,1,1,1,0,1,0,
|1,1,1,0,1,0,1,1,1,1,1,0,1,1,1,1,1,1,1,1,1,1,0,0,
|0,1,1,1,1,1,1,1,1,0,1,1,0,1,1,0,1,1,0,0,1,1,1,1,
|1,1,1,1,0,1,1,1,0,1,0,1,1,0,1,1,1,0,1,1,1,0,1,1,
|1,0,1,1,1,1,1,0,1,1,1,1,1,1,0,0,1,0,1,1,1,1,1,1,
|1,0,0,0,1,0,1,0,1,1,1,1,0,1,0,0,1,1,1,1,1,1,1,1,
|0,0,1,1,1,1,1,1,0,1,0,1,1,1,1,1,0,1,1,1,0,1,0,1,
|1,0,0,1,0,0,1,1,1,1,1,1,1,0,0,1,1,0,0,1,0,1,1,1,
|1,1,1,1,0,1,1,1,1,1,1,1,0,1,1,1,1,0,0,1,1,1,1,0,
|1,1,0,1,0,1,1,1,1,1,1,1,0,1,1,1,1,1,1,0,0,1,0,1,
|1,1,0,1,1,1,1,0,0,0,1,1,1,1,1,1,0,0,1,0,0,0,1,0,
|0,1,1,1,1,1,1,1,1,1,0,1,1,0,1,1,1,1,1,1,0,0,1,1,
|1,0,1,1,1,0,0,1,1,1,1,0,1,1,1,1,0,1,1,0,1,1,0,1,
|1,1,0,1,1,1,1,1,1,1,0,0,1,1,1,1,1,1,0,1,0,1,1,0,
|];